(set-info :smt-lib-version 2.6)
(set-logic UF)
(set-info :source |
Generated by: Andrew Reynolds
Generated on: 2017-04-28
Generator: Sledgehammer, converted to v2.6 by CVC4
Application: Verfication goals in Isabelle
Target solver: CVC4, Z3
Publications: "A Decision Procedure for (Co)Datatypes" by Andrew Reynolds and Jasmin Blanchette, CADE 2015.
|)
(set-info :license "https://creativecommons.org/licenses/by/4.0/")
(set-info :category "industrial")
(set-info :status unknown)


(declare-sort Nat$ 0)
(declare-sort Nat_nat_fun$ 0)
(declare-sort Num_num_fun$ 0)
(declare-sort Num_bool_fun$ 0)
(declare-sort Nat_nat_tree_fun$ 0)
(declare-sort Nat_tree_nat_fun$ 0)
(declare-sort Nat_tree_nat_tree_fun$ 0)
(declare-sort Nat_nat_fun_nat_nat_tree_fun_fun$ 0)
(declare-sort Nat_tree$ 0)
(declare-sort Nat_tree_tree$ 0)
(declare-fun root$ (Nat_tree$) Nat$)
(declare-fun left$ (Nat_tree$) Nat_tree$)
(declare-fun right$ (Nat_tree$) Nat_tree$)
(declare-fun node$ (Nat$ Nat_tree$ Nat_tree$) Nat_tree$)
(declare-fun root$a (Nat_tree_tree$) Nat_tree$)
(declare-fun left$a (Nat_tree_tree$) Nat_tree_tree$)
(declare-fun right$a (Nat_tree_tree$) Nat_tree_tree$)
(declare-fun node$a (Nat_tree$ Nat_tree_tree$ Nat_tree_tree$) Nat_tree_tree$)
(declare-sort Num$ 0)
(declare-fun one$ () Num$)
(declare-fun select$ (Num$) Num$)
(declare-fun bit0$ (Num$) Num$)
(declare-fun selecta$ (Num$) Num$)
(declare-fun bit1$ (Num$) Num$)
(declare-sort Nat_tree_tree_tree$ 0)
(declare-fun root$b (Nat_tree_tree_tree$) Nat_tree_tree$)
(declare-fun left$b (Nat_tree_tree_tree$) Nat_tree_tree_tree$)
(declare-fun right$b (Nat_tree_tree_tree$) Nat_tree_tree_tree$)
(declare-fun node$b (Nat_tree_tree$ Nat_tree_tree_tree$ Nat_tree_tree_tree$) Nat_tree_tree_tree$)
(declare-fun den$ () Nat_tree$)
(declare-fun inc$ (Num$) Num$)
(declare-fun num$ () Nat_tree$)
(declare-fun bitM$ (Num$) Num$)
(declare-fun one$a () Nat_tree_tree$)
(declare-fun one$b () Nat_tree$)
(declare-fun one$c () Nat$)
(declare-fun one$d () Nat_tree_tree_tree$)
(declare-fun plus$ (Nat_tree$) Nat_tree_nat_tree_fun$)
(declare-fun minus$ (Nat_tree$) Nat_tree_nat_tree_fun$)
(declare-fun plus$a (Nat_tree_tree$ Nat_tree_tree$) Nat_tree_tree$)
(declare-fun plus$b (Nat$) Nat_nat_fun$)
(declare-fun plus$c (Num$) Num_num_fun$)
(declare-fun times$ (Nat_tree$) Nat_tree_nat_tree_fun$)
(declare-fun minus$a (Nat$) Nat_nat_fun$)
(declare-fun mirror$ (Nat_tree$) Nat_tree$)
(declare-fun times$a (Nat_tree_tree$ Nat_tree_tree$) Nat_tree_tree$)
(declare-fun times$b (Nat$) Nat_nat_fun$)
(declare-fun times$c (Num$) Num_num_fun$)
(declare-fun fun_app$ (Nat_tree_nat_tree_fun$ Nat_tree$) Nat_tree$)
(declare-fun mirror$a (Nat_tree_tree$) Nat_tree_tree$)
(declare-fun numeral$ (Num$) Nat_tree_tree$)
(declare-fun fun_app$a (Nat_nat_tree_fun$ Nat$) Nat_tree$)
(declare-fun fun_app$b (Nat_nat_fun_nat_nat_tree_fun_fun$ Nat_nat_fun$) Nat_nat_tree_fun$)
(declare-fun fun_app$c (Nat_nat_fun$ Nat$) Nat$)
(declare-fun fun_app$d (Nat_tree_nat_fun$ Nat_tree$) Nat$)
(declare-fun fun_app$e (Num_num_fun$ Num$) Num$)
(declare-fun fun_app$f (Num_bool_fun$ Num$) Bool)
(declare-fun map_tree$ (Nat_nat_fun$) Nat_tree_nat_tree_fun$)
(declare-fun numeral$a (Num$) Nat_tree$)
(declare-fun numeral$b (Num$) Nat_tree_tree_tree$)
(declare-fun numeral$c (Num$) Nat$)
(declare-fun map_tree$a (Nat_nat_tree_fun$ Nat_tree$) Nat_tree_tree$)
(declare-fun map_tree$b (Nat_tree_nat_fun$ Nat_tree_tree$) Nat_tree$)
(declare-fun map_tree$c (Nat_tree_nat_tree_fun$ Nat_tree_tree$) Nat_tree_tree$)
(declare-fun pure_tree$ (Nat_tree$) Nat_tree_tree$)
(declare-fun tree_chop$ (Nat_tree$) Nat_tree$)
(declare-fun pure_tree$a (Nat$) Nat_tree$)
(declare-fun pure_tree$b (Nat_tree_tree$) Nat_tree_tree_tree$)
(declare-fun tree_chop$a (Nat_tree_tree$) Nat_tree_tree$)
(declare-fun tree_iterate$ (Nat_nat_fun$) Nat_nat_fun_nat_nat_tree_fun_fun$)
(assert (not (= (right$ den$) den$)))
(assert (= (right$ num$) (fun_app$ (plus$ num$) den$)))
(assert (forall ((?v0 Nat_nat_fun$) (?v1 Nat_nat_fun$) (?v2 Nat$)) (= (right$ (fun_app$a (fun_app$b (tree_iterate$ ?v0) ?v1) ?v2)) (fun_app$a (fun_app$b (tree_iterate$ ?v0) ?v1) (fun_app$c ?v1 ?v2))) ))
(assert (forall ((?v0 Nat_tree$)) (= (right$a (pure_tree$ ?v0)) (pure_tree$ ?v0)) ))
(assert (forall ((?v0 Nat$)) (= (right$ (pure_tree$a ?v0)) (pure_tree$a ?v0)) ))
(assert (forall ((?v0 Nat_tree$) (?v1 Nat_tree$)) (= (right$ (fun_app$ (times$ ?v0) ?v1)) (fun_app$ (times$ (right$ ?v0)) (right$ ?v1))) ))
(assert (forall ((?v0 Nat_tree$) (?v1 Nat_tree$)) (= (right$ (fun_app$ (plus$ ?v0) ?v1)) (fun_app$ (plus$ (right$ ?v0)) (right$ ?v1))) ))
(assert (forall ((?v0 Num$)) (= (right$a (numeral$ ?v0)) (numeral$ ?v0)) ))
(assert (forall ((?v0 Num$)) (= (right$ (numeral$a ?v0)) (numeral$a ?v0)) ))
(assert (forall ((?v0 Nat_tree$) (?v1 Nat_tree$)) (= (right$ (fun_app$ (minus$ ?v0) ?v1)) (fun_app$ (minus$ (right$ ?v0)) (right$ ?v1))) ))
(assert (forall ((?v0 Nat_nat_fun$) (?v1 Nat_tree$)) (= (right$ (fun_app$ (map_tree$ ?v0) ?v1)) (fun_app$ (map_tree$ ?v0) (right$ ?v1))) ))
(assert (forall ((?v0 Nat_tree$)) (= (right$ (tree_chop$ ?v0)) (tree_chop$ (left$ ?v0))) ))
(assert (forall ((?v0 Nat_tree$)) (= (left$ (tree_chop$ ?v0)) (right$ ?v0)) ))
(assert (= (left$ num$) num$))
(assert (forall ((?v0 Nat_nat_tree_fun$) (?v1 Nat$)) (= (map_tree$a ?v0 (pure_tree$a ?v1)) (pure_tree$ (fun_app$a ?v0 ?v1))) ))
(assert (forall ((?v0 Nat_tree_nat_fun$) (?v1 Nat_tree$)) (= (map_tree$b ?v0 (pure_tree$ ?v1)) (pure_tree$a (fun_app$d ?v0 ?v1))) ))
(assert (forall ((?v0 Nat_tree_nat_tree_fun$) (?v1 Nat_tree$)) (= (map_tree$c ?v0 (pure_tree$ ?v1)) (pure_tree$ (fun_app$ ?v0 ?v1))) ))
(assert (forall ((?v0 Nat_nat_fun$) (?v1 Nat$)) (= (fun_app$ (map_tree$ ?v0) (pure_tree$a ?v1)) (pure_tree$a (fun_app$c ?v0 ?v1))) ))
(assert (forall ((?v0 Nat_nat_fun$) (?v1 Nat_tree$)) (= (left$ (fun_app$ (map_tree$ ?v0) ?v1)) (fun_app$ (map_tree$ ?v0) (left$ ?v1))) ))
(assert (forall ((?v0 Nat_tree$)) (= (tree_chop$a (pure_tree$ ?v0)) (pure_tree$ ?v0)) ))
(assert (forall ((?v0 Nat$)) (= (tree_chop$ (pure_tree$a ?v0)) (pure_tree$a ?v0)) ))
(assert (forall ((?v0 Nat_tree$) (?v1 Nat_tree$)) (= (left$ (fun_app$ (plus$ ?v0) ?v1)) (fun_app$ (plus$ (left$ ?v0)) (left$ ?v1))) ))
(assert (forall ((?v0 Nat_tree$) (?v1 Nat_tree$)) (= (left$ (fun_app$ (minus$ ?v0) ?v1)) (fun_app$ (minus$ (left$ ?v0)) (left$ ?v1))) ))
(assert (forall ((?v0 Nat_tree$) (?v1 Nat_tree$)) (= (left$ (fun_app$ (times$ ?v0) ?v1)) (fun_app$ (times$ (left$ ?v0)) (left$ ?v1))) ))
(assert (forall ((?v0 Num$)) (= (left$a (numeral$ ?v0)) (numeral$ ?v0)) ))
(assert (forall ((?v0 Num$)) (= (left$ (numeral$a ?v0)) (numeral$a ?v0)) ))
(assert (forall ((?v0 Nat_tree$) (?v1 Nat_tree$)) (= (= (pure_tree$ ?v0) (pure_tree$ ?v1)) (= ?v0 ?v1)) ))
(assert (forall ((?v0 Nat$) (?v1 Nat$)) (= (= (pure_tree$a ?v0) (pure_tree$a ?v1)) (= ?v0 ?v1)) ))
(assert (forall ((?v0 Nat_tree$)) (= (left$a (pure_tree$ ?v0)) (pure_tree$ ?v0)) ))
(assert (forall ((?v0 Nat$)) (= (left$ (pure_tree$a ?v0)) (pure_tree$a ?v0)) ))
(assert (forall ((?v0 Nat_nat_fun$) (?v1 Nat_nat_fun$) (?v2 Nat$)) (= (left$ (fun_app$a (fun_app$b (tree_iterate$ ?v0) ?v1) ?v2)) (fun_app$a (fun_app$b (tree_iterate$ ?v0) ?v1) (fun_app$c ?v0 ?v2))) ))
(assert (forall ((?v0 Num$)) (! (= (numeral$b ?v0) (pure_tree$b (numeral$ ?v0))) :pattern ((numeral$b ?v0)))))
(assert (forall ((?v0 Num$)) (! (= (numeral$ ?v0) (pure_tree$ (numeral$a ?v0))) :pattern ((numeral$ ?v0)))))
(assert (forall ((?v0 Num$)) (! (= (numeral$a ?v0) (pure_tree$a (numeral$c ?v0))) :pattern ((numeral$a ?v0)))))
(assert (forall ((?v0 Nat_tree_tree$) (?v1 Nat_tree_tree$) (?v2 Num$)) (= (times$a (plus$a ?v0 ?v1) (numeral$ ?v2)) (plus$a (times$a ?v0 (numeral$ ?v2)) (times$a ?v1 (numeral$ ?v2)))) ))
(assert (forall ((?v0 Nat_tree$) (?v1 Nat_tree$) (?v2 Num$)) (= (fun_app$ (times$ (fun_app$ (plus$ ?v0) ?v1)) (numeral$a ?v2)) (fun_app$ (plus$ (fun_app$ (times$ ?v0) (numeral$a ?v2))) (fun_app$ (times$ ?v1) (numeral$a ?v2)))) ))
(assert (forall ((?v0 Nat$) (?v1 Nat$) (?v2 Num$)) (= (fun_app$c (times$b (fun_app$c (plus$b ?v0) ?v1)) (numeral$c ?v2)) (fun_app$c (plus$b (fun_app$c (times$b ?v0) (numeral$c ?v2))) (fun_app$c (times$b ?v1) (numeral$c ?v2)))) ))
(assert (forall ((?v0 Num$) (?v1 Nat_tree_tree$) (?v2 Nat_tree_tree$)) (= (times$a (numeral$ ?v0) (plus$a ?v1 ?v2)) (plus$a (times$a (numeral$ ?v0) ?v1) (times$a (numeral$ ?v0) ?v2))) ))
(assert (forall ((?v0 Num$) (?v1 Nat_tree$) (?v2 Nat_tree$)) (= (fun_app$ (times$ (numeral$a ?v0)) (fun_app$ (plus$ ?v1) ?v2)) (fun_app$ (plus$ (fun_app$ (times$ (numeral$a ?v0)) ?v1)) (fun_app$ (times$ (numeral$a ?v0)) ?v2))) ))
(assert (forall ((?v0 Num$) (?v1 Nat$) (?v2 Nat$)) (= (fun_app$c (times$b (numeral$c ?v0)) (fun_app$c (plus$b ?v1) ?v2)) (fun_app$c (plus$b (fun_app$c (times$b (numeral$c ?v0)) ?v1)) (fun_app$c (times$b (numeral$c ?v0)) ?v2))) ))
(assert (forall ((?v0 Num$) (?v1 Num$) (?v2 Nat_tree_tree$)) (= (plus$a (numeral$ ?v0) (plus$a (numeral$ ?v1) ?v2)) (plus$a (numeral$ (fun_app$e (plus$c ?v0) ?v1)) ?v2)) ))
(assert (forall ((?v0 Num$) (?v1 Num$) (?v2 Nat_tree$)) (= (fun_app$ (plus$ (numeral$a ?v0)) (fun_app$ (plus$ (numeral$a ?v1)) ?v2)) (fun_app$ (plus$ (numeral$a (fun_app$e (plus$c ?v0) ?v1))) ?v2)) ))
(assert (forall ((?v0 Num$) (?v1 Num$) (?v2 Nat$)) (= (fun_app$c (plus$b (numeral$c ?v0)) (fun_app$c (plus$b (numeral$c ?v1)) ?v2)) (fun_app$c (plus$b (numeral$c (fun_app$e (plus$c ?v0) ?v1))) ?v2)) ))
(assert (forall ((?v0 Num$) (?v1 Num$)) (= (plus$a (numeral$ ?v0) (numeral$ ?v1)) (numeral$ (fun_app$e (plus$c ?v0) ?v1))) ))
(assert (forall ((?v0 Num$) (?v1 Num$)) (= (fun_app$ (plus$ (numeral$a ?v0)) (numeral$a ?v1)) (numeral$a (fun_app$e (plus$c ?v0) ?v1))) ))
(assert (forall ((?v0 Num$) (?v1 Num$)) (= (fun_app$c (plus$b (numeral$c ?v0)) (numeral$c ?v1)) (numeral$c (fun_app$e (plus$c ?v0) ?v1))) ))
(assert (forall ((?v0 Nat_tree$) (?v1 Nat_tree$) (?v2 Nat_tree$)) (= (fun_app$ (minus$ (fun_app$ (plus$ ?v0) ?v1)) (fun_app$ (plus$ ?v2) ?v1)) (fun_app$ (minus$ ?v0) ?v2)) ))
(assert (forall ((?v0 Nat$) (?v1 Nat$) (?v2 Nat$)) (= (fun_app$c (minus$a (fun_app$c (plus$b ?v0) ?v1)) (fun_app$c (plus$b ?v2) ?v1)) (fun_app$c (minus$a ?v0) ?v2)) ))
(assert (forall ((?v0 Nat_tree$) (?v1 Nat_tree$) (?v2 Nat_tree$)) (= (fun_app$ (minus$ (fun_app$ (plus$ ?v0) ?v1)) (fun_app$ (plus$ ?v0) ?v2)) (fun_app$ (minus$ ?v1) ?v2)) ))
(assert (forall ((?v0 Nat$) (?v1 Nat$) (?v2 Nat$)) (= (fun_app$c (minus$a (fun_app$c (plus$b ?v0) ?v1)) (fun_app$c (plus$b ?v0) ?v2)) (fun_app$c (minus$a ?v1) ?v2)) ))
(assert (forall ((?v0 Nat_tree$) (?v1 Nat_tree$)) (= (fun_app$ (minus$ (fun_app$ (plus$ ?v0) ?v1)) ?v1) ?v0) ))
(assert (forall ((?v0 Nat$) (?v1 Nat$)) (= (fun_app$c (minus$a (fun_app$c (plus$b ?v0) ?v1)) ?v1) ?v0) ))
(assert (forall ((?v0 Nat_tree$) (?v1 Nat_tree$)) (= (fun_app$ (minus$ (fun_app$ (plus$ ?v0) ?v1)) ?v0) ?v1) ))
(assert (forall ((?v0 Nat$) (?v1 Nat$)) (= (fun_app$c (minus$a (fun_app$c (plus$b ?v0) ?v1)) ?v0) ?v1) ))
(assert (forall ((?v0 Nat_tree$) (?v1 Nat_tree$) (?v2 Nat_tree$)) (= (= (fun_app$ (plus$ ?v0) ?v1) (fun_app$ (plus$ ?v0) ?v2)) (= ?v1 ?v2)) ))
(assert (forall ((?v0 Nat$) (?v1 Nat$) (?v2 Nat$)) (= (= (fun_app$c (plus$b ?v0) ?v1) (fun_app$c (plus$b ?v0) ?v2)) (= ?v1 ?v2)) ))
(assert (forall ((?v0 Nat_tree$) (?v1 Nat_tree$) (?v2 Nat_tree$)) (= (= (fun_app$ (plus$ ?v0) ?v1) (fun_app$ (plus$ ?v2) ?v1)) (= ?v0 ?v2)) ))
(assert (forall ((?v0 Nat$) (?v1 Nat$) (?v2 Nat$)) (= (= (fun_app$c (plus$b ?v0) ?v1) (fun_app$c (plus$b ?v2) ?v1)) (= ?v0 ?v2)) ))
(assert (forall ((?v0 Num$) (?v1 Num$)) (= (= (numeral$ ?v0) (numeral$ ?v1)) (= ?v0 ?v1)) ))
(assert (forall ((?v0 Num$) (?v1 Num$)) (= (= (numeral$a ?v0) (numeral$a ?v1)) (= ?v0 ?v1)) ))
(assert (forall ((?v0 Num$) (?v1 Num$)) (= (= (numeral$c ?v0) (numeral$c ?v1)) (= ?v0 ?v1)) ))
(assert (forall ((?v0 Num$) (?v1 Num$)) (= (times$a (numeral$ ?v0) (numeral$ ?v1)) (numeral$ (fun_app$e (times$c ?v0) ?v1))) ))
(assert (forall ((?v0 Num$) (?v1 Num$)) (= (fun_app$ (times$ (numeral$a ?v0)) (numeral$a ?v1)) (numeral$a (fun_app$e (times$c ?v0) ?v1))) ))
(assert (forall ((?v0 Num$) (?v1 Num$)) (= (fun_app$c (times$b (numeral$c ?v0)) (numeral$c ?v1)) (numeral$c (fun_app$e (times$c ?v0) ?v1))) ))
(assert (forall ((?v0 Nat_tree$) (?v1 Nat_tree$)) (= (fun_app$ (times$ ?v0) ?v1) (fun_app$ (times$ ?v1) ?v0)) ))
(assert (forall ((?v0 Nat$) (?v1 Nat$)) (= (fun_app$c (times$b ?v0) ?v1) (fun_app$c (times$b ?v1) ?v0)) ))
(assert (forall ((?v0 Nat_tree$) (?v1 Nat_tree$) (?v2 Nat_tree$)) (= (fun_app$ (times$ ?v0) (fun_app$ (times$ ?v1) ?v2)) (fun_app$ (times$ ?v1) (fun_app$ (times$ ?v0) ?v2))) ))
(assert (forall ((?v0 Nat$) (?v1 Nat$) (?v2 Nat$)) (= (fun_app$c (times$b ?v0) (fun_app$c (times$b ?v1) ?v2)) (fun_app$c (times$b ?v1) (fun_app$c (times$b ?v0) ?v2))) ))
(assert (forall ((?v0 Nat_tree$) (?v1 Nat_tree$) (?v2 Nat_tree$)) (= (fun_app$ (times$ (fun_app$ (times$ ?v0) ?v1)) ?v2) (fun_app$ (times$ ?v0) (fun_app$ (times$ ?v1) ?v2))) ))
(assert (forall ((?v0 Nat$) (?v1 Nat$) (?v2 Nat$)) (= (fun_app$c (times$b (fun_app$c (times$b ?v0) ?v1)) ?v2) (fun_app$c (times$b ?v0) (fun_app$c (times$b ?v1) ?v2))) ))
(assert (forall ((?v0 Nat_tree$) (?v1 Nat_tree$) (?v2 Nat_tree$)) (= (fun_app$ (times$ (fun_app$ (times$ ?v0) ?v1)) ?v2) (fun_app$ (times$ ?v0) (fun_app$ (times$ ?v1) ?v2))) ))
(assert (forall ((?v0 Nat$) (?v1 Nat$) (?v2 Nat$)) (= (fun_app$c (times$b (fun_app$c (times$b ?v0) ?v1)) ?v2) (fun_app$c (times$b ?v0) (fun_app$c (times$b ?v1) ?v2))) ))
(assert (forall ((?v0 Nat$) (?v1 Nat$) (?v2 Nat$) (?v3 Nat$)) (=> (and (= ?v0 ?v1) (= ?v2 ?v3)) (= (fun_app$c (plus$b ?v0) ?v2) (fun_app$c (plus$b ?v1) ?v3))) ))
(assert (forall ((?v0 Nat_tree$) (?v1 Nat_tree$) (?v2 Nat_tree$)) (=> (= (fun_app$ (plus$ ?v0) ?v1) (fun_app$ (plus$ ?v0) ?v2)) (= ?v1 ?v2)) ))
(assert (forall ((?v0 Nat$) (?v1 Nat$) (?v2 Nat$)) (=> (= (fun_app$c (plus$b ?v0) ?v1) (fun_app$c (plus$b ?v0) ?v2)) (= ?v1 ?v2)) ))
(assert (forall ((?v0 Nat_tree$) (?v1 Nat_tree$) (?v2 Nat_tree$)) (=> (= (fun_app$ (plus$ ?v0) ?v1) (fun_app$ (plus$ ?v2) ?v1)) (= ?v0 ?v2)) ))
(assert (forall ((?v0 Nat$) (?v1 Nat$) (?v2 Nat$)) (=> (= (fun_app$c (plus$b ?v0) ?v1) (fun_app$c (plus$b ?v2) ?v1)) (= ?v0 ?v2)) ))
(assert (forall ((?v0 Nat_tree$) (?v1 Nat_tree$)) (= (fun_app$ (plus$ ?v0) ?v1) (fun_app$ (plus$ ?v1) ?v0)) ))
(assert (forall ((?v0 Nat$) (?v1 Nat$)) (= (fun_app$c (plus$b ?v0) ?v1) (fun_app$c (plus$b ?v1) ?v0)) ))
(assert (forall ((?v0 Nat_tree$) (?v1 Nat_tree$) (?v2 Nat_tree$)) (= (fun_app$ (plus$ ?v0) (fun_app$ (plus$ ?v1) ?v2)) (fun_app$ (plus$ ?v1) (fun_app$ (plus$ ?v0) ?v2))) ))
(assert (forall ((?v0 Nat$) (?v1 Nat$) (?v2 Nat$)) (= (fun_app$c (plus$b ?v0) (fun_app$c (plus$b ?v1) ?v2)) (fun_app$c (plus$b ?v1) (fun_app$c (plus$b ?v0) ?v2))) ))
(assert (forall ((?v0 Nat_tree$) (?v1 Nat_tree$) (?v2 Nat_tree$)) (= (fun_app$ (plus$ (fun_app$ (plus$ ?v0) ?v1)) ?v2) (fun_app$ (plus$ ?v0) (fun_app$ (plus$ ?v1) ?v2))) ))
(assert (forall ((?v0 Nat$) (?v1 Nat$) (?v2 Nat$)) (= (fun_app$c (plus$b (fun_app$c (plus$b ?v0) ?v1)) ?v2) (fun_app$c (plus$b ?v0) (fun_app$c (plus$b ?v1) ?v2))) ))
(assert (forall ((?v0 Nat_tree$) (?v1 Nat_tree$) (?v2 Nat_tree$)) (= (fun_app$ (plus$ (fun_app$ (plus$ ?v0) ?v1)) ?v2) (fun_app$ (plus$ ?v0) (fun_app$ (plus$ ?v1) ?v2))) ))
(assert (forall ((?v0 Nat$) (?v1 Nat$) (?v2 Nat$)) (= (fun_app$c (plus$b (fun_app$c (plus$b ?v0) ?v1)) ?v2) (fun_app$c (plus$b ?v0) (fun_app$c (plus$b ?v1) ?v2))) ))
(assert (forall ((?v0 Nat_tree$) (?v1 Nat_tree$) (?v2 Nat_tree$)) (= (fun_app$ (minus$ (fun_app$ (minus$ ?v0) ?v1)) ?v2) (fun_app$ (minus$ (fun_app$ (minus$ ?v0) ?v2)) ?v1)) ))
(assert (forall ((?v0 Nat$) (?v1 Nat$) (?v2 Nat$)) (= (fun_app$c (minus$a (fun_app$c (minus$a ?v0) ?v1)) ?v2) (fun_app$c (minus$a (fun_app$c (minus$a ?v0) ?v2)) ?v1)) ))
(assert (forall ((?v0 Nat_tree$) (?v1 Nat_tree$) (?v2 Nat_tree$)) (=> (= (fun_app$ (plus$ ?v0) ?v1) ?v2) (= ?v0 (fun_app$ (minus$ ?v2) ?v1))) ))
(assert (forall ((?v0 Nat$) (?v1 Nat$) (?v2 Nat$)) (=> (= (fun_app$c (plus$b ?v0) ?v1) ?v2) (= ?v0 (fun_app$c (minus$a ?v2) ?v1))) ))
(assert (forall ((?v0 Nat_tree$) (?v1 Nat_tree$) (?v2 Nat_tree$)) (= (fun_app$ (minus$ (fun_app$ (minus$ ?v0) ?v1)) ?v2) (fun_app$ (minus$ ?v0) (fun_app$ (plus$ ?v1) ?v2))) ))
(assert (forall ((?v0 Nat$) (?v1 Nat$) (?v2 Nat$)) (= (fun_app$c (minus$a (fun_app$c (minus$a ?v0) ?v1)) ?v2) (fun_app$c (minus$a ?v0) (fun_app$c (plus$b ?v1) ?v2))) ))
(assert (forall ((?v0 Num$) (?v1 Num$) (?v2 Nat_tree_tree$)) (= (times$a (numeral$ ?v0) (times$a (numeral$ ?v1) ?v2)) (times$a (numeral$ (fun_app$e (times$c ?v0) ?v1)) ?v2)) ))
(assert (forall ((?v0 Num$) (?v1 Num$) (?v2 Nat_tree$)) (= (fun_app$ (times$ (numeral$a ?v0)) (fun_app$ (times$ (numeral$a ?v1)) ?v2)) (fun_app$ (times$ (numeral$a (fun_app$e (times$c ?v0) ?v1))) ?v2)) ))
(assert (forall ((?v0 Num$) (?v1 Num$) (?v2 Nat$)) (= (fun_app$c (times$b (numeral$c ?v0)) (fun_app$c (times$b (numeral$c ?v1)) ?v2)) (fun_app$c (times$b (numeral$c (fun_app$e (times$c ?v0) ?v1))) ?v2)) ))
(assert (forall ((?v0 Nat_tree$) (?v1 Nat_tree$) (?v2 Nat_tree$) (?v3 Nat_tree$)) (= (fun_app$ (plus$ (fun_app$ (times$ ?v0) ?v1)) (fun_app$ (plus$ (fun_app$ (times$ ?v2) ?v1)) ?v3)) (fun_app$ (plus$ (fun_app$ (times$ (fun_app$ (plus$ ?v0) ?v2)) ?v1)) ?v3)) ))
(assert (forall ((?v0 Nat$) (?v1 Nat$) (?v2 Nat$) (?v3 Nat$)) (= (fun_app$c (plus$b (fun_app$c (times$b ?v0) ?v1)) (fun_app$c (plus$b (fun_app$c (times$b ?v2) ?v1)) ?v3)) (fun_app$c (plus$b (fun_app$c (times$b (fun_app$c (plus$b ?v0) ?v2)) ?v1)) ?v3)) ))
(assert (forall ((?v0 Nat_tree$) (?v1 Nat_tree$) (?v2 Nat_tree$)) (= (fun_app$ (times$ (fun_app$ (plus$ ?v0) ?v1)) ?v2) (fun_app$ (plus$ (fun_app$ (times$ ?v0) ?v2)) (fun_app$ (times$ ?v1) ?v2))) ))
(assert (forall ((?v0 Nat$) (?v1 Nat$) (?v2 Nat$)) (= (fun_app$c (times$b (fun_app$c (plus$b ?v0) ?v1)) ?v2) (fun_app$c (plus$b (fun_app$c (times$b ?v0) ?v2)) (fun_app$c (times$b ?v1) ?v2))) ))
(assert (forall ((?v0 Nat_tree$) (?v1 Nat_tree$) (?v2 Nat_tree$)) (= (fun_app$ (times$ (fun_app$ (plus$ ?v0) ?v1)) ?v2) (fun_app$ (plus$ (fun_app$ (times$ ?v0) ?v2)) (fun_app$ (times$ ?v1) ?v2))) ))
(assert (forall ((?v0 Nat$) (?v1 Nat$) (?v2 Nat$)) (= (fun_app$c (times$b (fun_app$c (plus$b ?v0) ?v1)) ?v2) (fun_app$c (plus$b (fun_app$c (times$b ?v0) ?v2)) (fun_app$c (times$b ?v1) ?v2))) ))
(assert (forall ((?v0 Nat_tree$) (?v1 Nat_tree$) (?v2 Nat_tree$)) (= (fun_app$ (times$ ?v0) (fun_app$ (plus$ ?v1) ?v2)) (fun_app$ (plus$ (fun_app$ (times$ ?v0) ?v1)) (fun_app$ (times$ ?v0) ?v2))) ))
(assert (forall ((?v0 Nat$) (?v1 Nat$) (?v2 Nat$)) (= (fun_app$c (times$b ?v0) (fun_app$c (plus$b ?v1) ?v2)) (fun_app$c (plus$b (fun_app$c (times$b ?v0) ?v1)) (fun_app$c (times$b ?v0) ?v2))) ))
(assert (forall ((?v0 Nat_tree$) (?v1 Nat_tree$) (?v2 Nat_tree$)) (= (fun_app$ (times$ (fun_app$ (minus$ ?v0) ?v1)) ?v2) (fun_app$ (minus$ (fun_app$ (times$ ?v0) ?v2)) (fun_app$ (times$ ?v1) ?v2))) ))
(assert (forall ((?v0 Nat$) (?v1 Nat$) (?v2 Nat$)) (= (fun_app$c (times$b (fun_app$c (minus$a ?v0) ?v1)) ?v2) (fun_app$c (minus$a (fun_app$c (times$b ?v0) ?v2)) (fun_app$c (times$b ?v1) ?v2))) ))
(assert (forall ((?v0 Nat_tree$) (?v1 Nat_tree$) (?v2 Nat_tree$)) (= (fun_app$ (times$ ?v0) (fun_app$ (minus$ ?v1) ?v2)) (fun_app$ (minus$ (fun_app$ (times$ ?v0) ?v1)) (fun_app$ (times$ ?v0) ?v2))) ))
(assert (forall ((?v0 Nat$) (?v1 Nat$) (?v2 Nat$)) (= (fun_app$c (times$b ?v0) (fun_app$c (minus$a ?v1) ?v2)) (fun_app$c (minus$a (fun_app$c (times$b ?v0) ?v1)) (fun_app$c (times$b ?v0) ?v2))) ))
(assert (forall ((?v0 Nat$) (?v1 Nat$) (?v2 Nat$) (?v3 Nat$)) (= (= (fun_app$c (plus$b (fun_app$c (times$b ?v0) ?v1)) (fun_app$c (times$b ?v2) ?v3)) (fun_app$c (plus$b (fun_app$c (times$b ?v0) ?v3)) (fun_app$c (times$b ?v2) ?v1))) (or (= ?v0 ?v2) (= ?v1 ?v3))) ))
(assert (forall ((?v0 Nat$) (?v1 Nat$) (?v2 Nat$) (?v3 Nat$)) (= (and (not (= ?v0 ?v1)) (not (= ?v2 ?v3))) (not (= (fun_app$c (plus$b (fun_app$c (times$b ?v0) ?v2)) (fun_app$c (times$b ?v1) ?v3)) (fun_app$c (plus$b (fun_app$c (times$b ?v0) ?v3)) (fun_app$c (times$b ?v1) ?v2))))) ))
(assert (forall ((?v0 Nat_tree$)) (= (right$ (mirror$ ?v0)) (mirror$ (left$ ?v0))) ))
(assert (forall ((?v0 Nat_tree$)) (= (left$ (mirror$ ?v0)) (mirror$ (right$ ?v0))) ))
(assert (forall ((?v0 Num$) (?v1 Num$)) (= (fun_app$e (times$c ?v0) (inc$ ?v1)) (fun_app$e (plus$c (fun_app$e (times$c ?v0) ?v1)) ?v0)) ))
(assert (forall ((?v0 Num$) (?v1 Num$)) (= (fun_app$e (plus$c ?v0) (inc$ ?v1)) (inc$ (fun_app$e (plus$c ?v0) ?v1))) ))
(assert (forall ((?v0 Nat_tree$)) (= (mirror$a (pure_tree$ ?v0)) (pure_tree$ ?v0)) ))
(assert (forall ((?v0 Nat$)) (= (mirror$ (pure_tree$a ?v0)) (pure_tree$a ?v0)) ))
(assert (forall ((?v0 Nat_tree_tree$)) (= (times$a ?v0 one$a) ?v0) ))
(assert (forall ((?v0 Nat_tree$)) (= (fun_app$ (times$ ?v0) one$b) ?v0) ))
(assert (forall ((?v0 Nat$)) (= (fun_app$c (times$b ?v0) one$c) ?v0) ))
(assert (forall ((?v0 Nat_tree_tree$)) (= (times$a one$a ?v0) ?v0) ))
(assert (forall ((?v0 Nat_tree$)) (= (fun_app$ (times$ one$b) ?v0) ?v0) ))
(assert (forall ((?v0 Nat$)) (= (fun_app$c (times$b one$c) ?v0) ?v0) ))
(assert (= one$d (pure_tree$b one$a)))
(assert (= one$a (pure_tree$ one$b)))
(assert (= one$b (pure_tree$a one$c)))
(assert (forall ((?v0 Nat_tree_tree$)) (= (= one$a ?v0) (= ?v0 one$a)) ))
(assert (forall ((?v0 Nat_tree$)) (= (= one$b ?v0) (= ?v0 one$b)) ))
(assert (forall ((?v0 Nat$)) (= (= one$c ?v0) (= ?v0 one$c)) ))
(assert (forall ((?v0 Nat_tree_tree$)) (= (times$a ?v0 one$a) ?v0) ))
(assert (forall ((?v0 Nat_tree$)) (= (fun_app$ (times$ ?v0) one$b) ?v0) ))
(assert (forall ((?v0 Nat$)) (= (fun_app$c (times$b ?v0) one$c) ?v0) ))
(assert (forall ((?v0 Nat_tree_tree$)) (= (times$a one$a ?v0) ?v0) ))
(assert (forall ((?v0 Nat_tree$)) (= (fun_app$ (times$ one$b) ?v0) ?v0) ))
(assert (forall ((?v0 Nat$)) (= (fun_app$c (times$b one$c) ?v0) ?v0) ))
(assert (forall ((?v0 Num$)) (= (plus$a one$a (numeral$ ?v0)) (plus$a (numeral$ ?v0) one$a)) ))
(assert (forall ((?v0 Num$)) (= (fun_app$ (plus$ one$b) (numeral$a ?v0)) (fun_app$ (plus$ (numeral$a ?v0)) one$b)) ))
(assert (forall ((?v0 Num$)) (= (fun_app$c (plus$b one$c) (numeral$c ?v0)) (fun_app$c (plus$b (numeral$c ?v0)) one$c)) ))
(assert (forall ((?v0 Num$)) (= (numeral$ (inc$ ?v0)) (plus$a (numeral$ ?v0) one$a)) ))
(assert (forall ((?v0 Num$)) (= (numeral$a (inc$ ?v0)) (fun_app$ (plus$ (numeral$a ?v0)) one$b)) ))
(assert (forall ((?v0 Num$)) (= (numeral$c (inc$ ?v0)) (fun_app$c (plus$b (numeral$c ?v0)) one$c)) ))
(assert (forall ((?v0 Num$)) (! (= (fun_app$e (times$c one$) ?v0) ?v0) :pattern ((fun_app$e (times$c one$) ?v0)))))
(assert (forall ((?v0 Num$)) (! (= (fun_app$e (times$c ?v0) one$) ?v0) :pattern ((times$c ?v0)))))
(assert (forall ((?v0 Num$)) (= (= (numeral$ ?v0) one$a) (= ?v0 one$)) ))
(assert (forall ((?v0 Num$)) (= (= (numeral$a ?v0) one$b) (= ?v0 one$)) ))
(assert (forall ((?v0 Num$)) (= (= (numeral$c ?v0) one$c) (= ?v0 one$)) ))
(assert (forall ((?v0 Num$)) (= (= one$a (numeral$ ?v0)) (= one$ ?v0)) ))
(assert (forall ((?v0 Num$)) (= (= one$b (numeral$a ?v0)) (= one$ ?v0)) ))
(assert (forall ((?v0 Num$)) (= (= one$c (numeral$c ?v0)) (= one$ ?v0)) ))
(assert (forall ((?v0 Num$)) (= (plus$a one$a (numeral$ ?v0)) (numeral$ (fun_app$e (plus$c one$) ?v0))) ))
(assert (forall ((?v0 Num$)) (= (fun_app$ (plus$ one$b) (numeral$a ?v0)) (numeral$a (fun_app$e (plus$c one$) ?v0))) ))
(assert (forall ((?v0 Num$)) (= (fun_app$c (plus$b one$c) (numeral$c ?v0)) (numeral$c (fun_app$e (plus$c one$) ?v0))) ))
(assert (forall ((?v0 Num$)) (= (plus$a (numeral$ ?v0) one$a) (numeral$ (fun_app$e (plus$c ?v0) one$))) ))
(assert (forall ((?v0 Num$)) (= (fun_app$ (plus$ (numeral$a ?v0)) one$b) (numeral$a (fun_app$e (plus$c ?v0) one$))) ))
(assert (forall ((?v0 Num$)) (= (fun_app$c (plus$b (numeral$c ?v0)) one$c) (numeral$c (fun_app$e (plus$c ?v0) one$))) ))
(assert (= (numeral$c one$) one$c))
(assert (= (= one$ one$) true))
(assert (forall ((?v0 Num$)) (! (= (fun_app$e (plus$c one$) ?v0) (fun_app$e (plus$c ?v0) one$)) :pattern ((fun_app$e (plus$c one$) ?v0)))))
(assert (forall ((?v0 Num_bool_fun$) (?v1 Num$)) (=> (and (fun_app$f ?v0 one$) (forall ((?v2 Num$)) (=> (fun_app$f ?v0 ?v2) (fun_app$f ?v0 (inc$ ?v2))) )) (fun_app$f ?v0 ?v1)) ))
(assert (forall ((?v0 Nat_tree_tree$)) (= (times$a (numeral$ one$) ?v0) ?v0) ))
(assert (forall ((?v0 Nat_tree$)) (= (fun_app$ (times$ (numeral$a one$)) ?v0) ?v0) ))
(assert (forall ((?v0 Nat$)) (= (fun_app$c (times$b (numeral$c one$)) ?v0) ?v0) ))
(assert (forall ((?v0 Nat_tree_tree$)) (= (times$a ?v0 (numeral$ one$)) ?v0) ))
(assert (forall ((?v0 Nat_tree$)) (= (fun_app$ (times$ ?v0) (numeral$a one$)) ?v0) ))
(assert (forall ((?v0 Nat$)) (= (fun_app$c (times$b ?v0) (numeral$c one$)) ?v0) ))
(assert (= (numeral$ one$) one$a))
(assert (= (numeral$a one$) one$b))
(assert (= (numeral$c one$) one$c))
(assert (forall ((?v0 Num$)) (! (= (fun_app$e (plus$c ?v0) one$) (inc$ ?v0)) :pattern ((plus$c ?v0)))))
(assert (forall ((?v0 Num$) (?v1 Num$)) (= (= (bit0$ ?v0) (bit0$ ?v1)) (= ?v0 ?v1)) ))
(assert (forall ((?v0 Num$) (?v1 Num$)) (= (= (bit0$ ?v0) (bit0$ ?v1)) (= ?v0 ?v1)) ))
(assert (forall ((?v0 Num$)) (= (= one$ (bit0$ ?v0)) false) ))
(assert (forall ((?v0 Num$)) (= (= (bit0$ ?v0) one$) false) ))
(assert (forall ((?v0 Num$) (?v1 Num$)) (! (= (fun_app$e (plus$c (bit0$ ?v0)) (bit0$ ?v1)) (bit0$ (fun_app$e (plus$c ?v0) ?v1))) :pattern ((fun_app$e (plus$c (bit0$ ?v0)) (bit0$ ?v1))))))
(assert (forall ((?v0 Num$) (?v1 Num$)) (! (= (fun_app$e (times$c (bit0$ ?v0)) (bit0$ ?v1)) (bit0$ (bit0$ (fun_app$e (times$c ?v0) ?v1)))) :pattern ((fun_app$e (times$c (bit0$ ?v0)) (bit0$ ?v1))))))
(assert (= (fun_app$e (plus$c one$) one$) (bit0$ one$)))
(assert (= (plus$a one$a one$a) (numeral$ (bit0$ one$))))
(assert (= (fun_app$ (plus$ one$b) one$b) (numeral$a (bit0$ one$))))
(assert (= (fun_app$c (plus$b one$c) one$c) (numeral$c (bit0$ one$))))
(assert (= (fun_app$c (plus$b one$c) one$c) (numeral$c (bit0$ one$))))
(assert (forall ((?v0 Num$)) (not (= one$ (bit0$ ?v0))) ))
(assert (forall ((?v0 Num$)) (! (= (numeral$ (bit0$ ?v0)) (plus$a (numeral$ ?v0) (numeral$ ?v0))) :pattern ((bit0$ ?v0)))))
(assert (forall ((?v0 Num$)) (! (= (numeral$a (bit0$ ?v0)) (fun_app$ (plus$ (numeral$a ?v0)) (numeral$a ?v0))) :pattern ((bit0$ ?v0)))))
(assert (forall ((?v0 Num$)) (! (= (numeral$c (bit0$ ?v0)) (fun_app$c (plus$b (numeral$c ?v0)) (numeral$c ?v0))) :pattern ((bit0$ ?v0)))))
(assert (= (inc$ one$) (bit0$ one$)))
(assert (forall ((?v0 Nat_tree_tree$)) (= (times$a (numeral$ (bit0$ one$)) ?v0) (plus$a ?v0 ?v0)) ))
(assert (forall ((?v0 Nat_tree$)) (= (fun_app$ (times$ (numeral$a (bit0$ one$))) ?v0) (fun_app$ (plus$ ?v0) ?v0)) ))
(assert (forall ((?v0 Nat$)) (= (fun_app$c (times$b (numeral$c (bit0$ one$))) ?v0) (fun_app$c (plus$b ?v0) ?v0)) ))
(assert (forall ((?v0 Nat_tree_tree$)) (= (times$a ?v0 (numeral$ (bit0$ one$))) (plus$a ?v0 ?v0)) ))
(assert (forall ((?v0 Nat_tree$)) (= (fun_app$ (times$ ?v0) (numeral$a (bit0$ one$))) (fun_app$ (plus$ ?v0) ?v0)) ))
(assert (forall ((?v0 Nat$)) (= (fun_app$c (times$b ?v0) (numeral$c (bit0$ one$))) (fun_app$c (plus$b ?v0) ?v0)) ))
(assert (= (bitM$ one$) one$))
(assert (forall ((?v0 Num$)) (= (fun_app$e (plus$c one$) (bitM$ ?v0)) (bit0$ ?v0)) ))
(assert (forall ((?v0 Num$)) (= (fun_app$e (plus$c (bitM$ ?v0)) one$) (bit0$ ?v0)) ))
(assert (= den$ (node$ one$c (fun_app$ (plus$ num$) den$) den$)))
(assert (= num$ (node$ one$c num$ (fun_app$ (plus$ num$) den$))))
(check-sat)
(exit)

